c Random generated cnf formula, satisfiable: true
p cnf 10 50
2 -7 4 0
10 1 -9 0
-8 -9 4 0
-6 4 1 0
-10 8 5 0
-9 4 -10 0
1 -3 -9 0
4 10 7 0
-5 -10 3 0
2 8 -1 0
5 10 4 0
6 8 -5 0
-8 -1 -2 0
8 -3 -1 0
-8 1 5 0
-5 6 -4 0
-5 9 2 0
3 -1 -5 0
-8 -6 2 0
1 2 -9 0
2 8 7 0
3 -2 -7 0
-9 10 4 0
7 -5 -9 0
-7 10 -8 0
-8 -4 -1 0
6 -10 -4 0
2 7 -5 0
-1 9 -5 0
1 -3 7 0
-2 -10 -8 0
-9 -4 5 0
-5 3 -2 0
5 -6 -3 0
-7 9 -6 0
5 7 -2 0
3 -2 9 0
-10 -2 -5 0
6 -9 -7 0
-6 4 -10 0
-5 4 -6 0
-4 -6 1 0
1 10 9 0
9 7 8 0
7 -2 -8 0
-9 6 8 0
-2 1 -4 0
-1 10 -2 0
-6 9 2 0
-2 4 -5 0
